
******************************************************************************
This program contains Ipopt, a library for large-scale nonlinear optimization.
 Ipopt is released as open source code under the Eclipse Public License (EPL).
         For more information visit http://projects.coin-or.org/Ipopt
******************************************************************************

This is Ipopt version 3.12.6, running with linear solver ma57.

Number of nonzeros in equality constraint Jacobian...:        0
Number of nonzeros in inequality constraint Jacobian.:        0
Number of nonzeros in Lagrangian Hessian.............:    10000

Total number of variables............................:     5000
                     variables with only lower bounds:        0
                variables with lower and upper bounds:        0
                     variables with only upper bounds:        0
Total number of equality constraints.................:        0
Total number of inequality constraints...............:        0
        inequality constraints with only lower bounds:        0
   inequality constraints with lower and upper bounds:        0
        inequality constraints with only upper bounds:        0

iter    objective    inf_pr   inf_du lg(mu)  ||d||  lg(rg) alpha_du alpha_pr  ls
   0  2.6875000e+05 0.00e+00 1.00e+02  -1.0 0.00e+00    -  0.00e+00 0.00e+00   0
   1  3.9753086e+04 0.00e+00 3.06e+01  -1.0 1.41e+00    -  1.00e+00 1.00e+00f  1
   2  7.8524615e+03 0.00e+00 9.06e+00  -1.0 5.29e-01    -  1.00e+00 1.00e+00f  1
   3  1.5511035e+03 0.00e+00 2.69e+00  -1.0 3.53e-01    -  1.00e+00 1.00e+00f  1
   4  3.0639082e+02 0.00e+00 7.96e-01  -1.0 2.35e-01    -  1.00e+00 1.00e+00f  1
   5  6.0521643e+01 0.00e+00 2.36e-01  -1.7 1.57e-01    -  1.00e+00 1.00e+00f  1
   6  1.1954892e+01 0.00e+00 6.98e-02  -1.7 1.05e-01    -  1.00e+00 1.00e+00f  1
   7  2.3614602e+00 0.00e+00 2.07e-02  -2.5 6.97e-02    -  1.00e+00 1.00e+00f  1
   8  4.6646128e-01 0.00e+00 6.13e-03  -3.8 4.65e-02    -  1.00e+00 1.00e+00f  1
   9  9.2140500e-02 0.00e+00 1.82e-03  -3.8 3.10e-02    -  1.00e+00 1.00e+00f  1
iter    objective    inf_pr   inf_du lg(mu)  ||d||  lg(rg) alpha_du alpha_pr  ls
  10  1.8200593e-02 0.00e+00 5.38e-04  -3.8 2.06e-02    -  1.00e+00 1.00e+00f  1
  11  3.5951788e-03 0.00e+00 1.60e-04  -5.7 1.38e-02    -  1.00e+00 1.00e+00f  1
  12  7.1015877e-04 0.00e+00 4.73e-05  -5.7 9.18e-03    -  1.00e+00 1.00e+00f  1
  13  1.4027828e-04 0.00e+00 1.40e-05  -5.7 6.12e-03    -  1.00e+00 1.00e+00f  1
  14  2.7709289e-05 0.00e+00 4.15e-06  -8.6 4.08e-03    -  1.00e+00 1.00e+00f  1
  15  5.4734398e-06 0.00e+00 1.23e-06  -8.6 2.72e-03    -  1.00e+00 1.00e+00f  1
  16  1.0811733e-06 0.00e+00 3.64e-07  -8.6 1.81e-03    -  1.00e+00 1.00e+00f  1
  17  2.1356510e-07 0.00e+00 1.08e-07  -8.6 1.21e-03    -  1.00e+00 1.00e+00f  1
  18  4.2185698e-08 0.00e+00 3.20e-08  -8.6 8.06e-04    -  1.00e+00 1.00e+00f  1
  19  8.3329773e-09 0.00e+00 9.48e-09  -8.6 5.37e-04    -  1.00e+00 1.00e+00f  1

Number of Iterations....: 19

                                   (scaled)                 (unscaled)
Objective...............:   2.6880572062491947e-09    8.3329773393725037e-09
Dual infeasibility......:   9.4751592582624879e-09    2.9372993700613712e-08
Constraint violation....:   0.0000000000000000e+00    0.0000000000000000e+00
Complementarity.........:   0.0000000000000000e+00    0.0000000000000000e+00
Overall NLP error.......:   9.4751592582624879e-09    2.9372993700613712e-08


Number of objective function evaluations             = 20
Number of objective gradient evaluations             = 20
Number of equality constraint evaluations            = 0
Number of inequality constraint evaluations          = 0
Number of equality constraint Jacobian evaluations   = 0
Number of inequality constraint Jacobian evaluations = 0
Number of Lagrangian Hessian evaluations             = 19
Total CPU secs in IPOPT (w/o function evaluations)   =      0.020
Total CPU secs in NLP function evaluations           =      0.023

EXIT: Optimal Solution Found.

 ** SUBROUTINE CUTEST_csetup: Warning. The problem has no general constraints. 
 ** Other tools may be preferable ** 

************************ CUTEst statistics ************************


 Package used            :  IPOPT
 Problem                 :  POWELLSG  
 # variables             =            5000
 # constraints           =               0
 # objective functions   =        0.4100000E+02
 # objective gradients   =        0.2100000E+02
 # objective Hessians    =        0.2000000E+02
 # Hessian-vector prdct  =        0.0000000E+00
 # constraints functions =        0.0000000E+00
 # constraints gradients =        0.0000000E+00
 # constraints Hessians  =        0.0000000E+00
 Exit code               =               0
 Final f                 =   0.8332977E-08
 Set up time             =            0.07 seconds
 Solve time              =            0.15 seconds


******************************************************************

System Time =       0.0370000005 s.
